(set-logic QF_UF)
(declare-fun A0 () Bool)
(declare-fun A1 () Bool)
(declare-fun A2 () Bool)
(declare-fun A3 () Bool)
(declare-fun A5 () Bool)
(declare-fun A6 () Bool)
(declare-fun A7 () Bool)
(declare-fun A8 () Bool)
(declare-fun A9 () Bool)
(declare-fun A10 () Bool)
(declare-fun A11 () Bool)
(declare-fun A12 () Bool)
(declare-fun A14 () Bool)
(declare-fun A15 () Bool)
(declare-fun A17 () Bool)
(declare-fun A18 () Bool)
(declare-fun A19 () Bool)
(declare-fun A20 () Bool)
(declare-fun A21 () Bool)
(declare-fun A22 () Bool)
(declare-fun A23 () Bool)
(declare-fun A24 () Bool)
(assert (let ((.def_0 (or A17 A20))) (let ((.def_1 (not .def_0))) (let ((.def_2 (not A24))) (let ((.def_3 (not A0))) (let ((.def_4 (or .def_3 .def_2))) (let ((.def_5 (not .def_4))) (let ((.def_6 (or .def_5 .def_1))) (let ((.def_7 (not A9))) (let ((.def_8 (or A7 .def_7))) (let ((.def_9 (not A14))) (let ((.def_10 (or A7 .def_9))) (let ((.def_11 (not .def_10))) (let ((.def_12 (or .def_11 .def_8))) (let ((.def_13 (and .def_12 .def_6))) (let ((.def_14 (not A23))) (let ((.def_15 (not A3))) (let ((.def_16 (and .def_15 .def_14))) (let ((.def_17 (and A0 A10))) (let ((.def_18 (not .def_17))) (let ((.def_19 (or .def_18 .def_16))) (let ((.def_20 (not A12))) (let ((.def_21 (and .def_20 A5))) (let ((.def_22 (not .def_21))) (let ((.def_23 (or A12 A9))) (let ((.def_24 (or .def_23 .def_22))) (let ((.def_25 (and .def_24 .def_19))) (let ((.def_26 (= .def_25 .def_13))) (let ((.def_27 (and A11 A6))) (let ((.def_28 (not .def_27))) (let ((.def_29 (not A18))) (let ((.def_30 (or .def_29 A12))) (let ((.def_31 (and .def_30 .def_28))) (let ((.def_32 (not A20))) (let ((.def_33 (not A10))) (let ((.def_34 (or .def_33 .def_32))) (let ((.def_35 (not .def_34))) (let ((.def_36 (not A21))) (let ((.def_37 (or A21 .def_36))) (let ((.def_38 (or .def_37 .def_35))) (let ((.def_39 (not .def_38))) (let ((.def_40 (and .def_39 .def_31))) (let ((.def_41 (not A19))) (let ((.def_42 (and .def_41 A2))) (let ((.def_43 (not A11))) (let ((.def_44 (or A5 .def_43))) (let ((.def_45 (and .def_44 .def_42))) (let ((.def_46 (or A12 A15))) (let ((.def_47 (not A2))) (let ((.def_48 (or .def_47 .def_36))) (let ((.def_49 (or .def_48 .def_46))) (let ((.def_50 (not .def_49))) (let ((.def_51 (and .def_50 .def_45))) (let ((.def_52 (and .def_51 .def_40))) (let ((.def_53 (not .def_52))) (let ((.def_54 (or .def_53 .def_26))) (let ((.def_55 (not .def_54))) (let ((.def_56 (or A1 A15))) (let ((.def_57 (not .def_56))) (let ((.def_58 (or .def_47 A11))) (let ((.def_59 (= .def_58 .def_57))) (let ((.def_60 (not A8))) (let ((.def_61 (= .def_32 .def_60))) (let ((.def_62 (not .def_61))) (let ((.def_63 (and A23 .def_32))) (let ((.def_64 (and .def_63 .def_62))) (let ((.def_65 (not .def_64))) (let ((.def_66 (or .def_65 .def_59))) (let ((.def_67 (or A15 .def_33))) (let ((.def_68 (not .def_67))) (let ((.def_69 (not A6))) (let ((.def_70 (or A24 .def_69))) (let ((.def_71 (not .def_70))) (let ((.def_72 (and .def_71 .def_68))) (let ((.def_73 (and A18 A10))) (let ((.def_74 (not .def_73))) (let ((.def_75 (or .def_36 A18))) (let ((.def_76 (= .def_75 .def_74))) (let ((.def_77 (not .def_76))) (let ((.def_78 (or .def_77 .def_72))) (let ((.def_79 (or .def_78 .def_66))) (let ((.def_80 (and .def_32 A9))) (let ((.def_81 (not .def_80))) (let ((.def_82 (or A15 .def_2))) (let ((.def_83 (or .def_82 .def_81))) (let ((.def_84 (or A15 A12))) (let ((.def_85 (or A5 .def_14))) (let ((.def_86 (and .def_85 .def_84))) (let ((.def_87 (or .def_86 .def_83))) (let ((.def_88 (or A9 A11))) (let ((.def_89 (not A1))) (let ((.def_90 (or .def_89 A18))) (let ((.def_91 (and .def_90 .def_88))) (let ((.def_92 (= .def_89 A1))) (let ((.def_93 (and A14 A22))) (let ((.def_94 (not .def_93))) (let ((.def_95 (and .def_94 .def_92))) (let ((.def_96 (and .def_95 .def_91))) (let ((.def_97 (not .def_96))) (let ((.def_98 (= .def_97 .def_87))) (let ((.def_99 (not .def_98))) (let ((.def_100 (or .def_99 .def_79))) (let ((.def_101 (not .def_100))) (let ((.def_102 (and .def_101 .def_55))) (let ((.def_103 (not .def_102))) .def_103)))))))))))))))))))))))))))))))))))))))))))))))))))))))))))))))))))))))))))))))))))))))))))))))))))))))))
(check-sat)
